Route #1: 14 28 32 29 19 40 
Route #2: 44 25 49 43 12 37 7 48 
Route #3: 34 4 18 26 47 24 16 
Route #4: 23 45 39 35 15 
Route #5: 13 10 41 38 22 46 2 
Route #6: 31 5 11 
Route #7: 6 20 36 9 33 27 
Route #8: 3 8 42 17 21 1 30 
cost 1385.32
execution_time 20.804
